0 60 62
1 49 62
2 55 60
3 53 60
4 55 56
5 60 61
6 28 59
7 59 59
8 52 57
9 52 56
10 41 54
11 49 56
12 45 54
13 48 51
14 44 50
15 45 51
16 49 50
17 45 48
18 38 47
19 32 44
20 34 42
21 30 42
22 32 43
23 32 41
24 33 39
25 36 36
26 22 35
27 24 35
28 32 31
29 23 25
30 24 24
31 22 27
32 18 24
33 17 22
34 16 22
35 10 18
36 16 15
37 10 14
38 11 14
39 10 13
40 14 14
41 13 13
42 11 12
43 4 9
44 9 9
45 5 8
46 2 8
47 3 5
48 3 5
49 3 5
50 2 4
51 2 3

